





































































































41 7 21 15 30 36 
12 11 43 67 46 9 
44 76 3 24 55 23 52 
62 26 54 56 33 69 
64 57 61 71 0 2 37 
31 66 75 25 22 28 
45 32 53 51 60 42 
19 47 5 34 74 8 
50 29 13 35 14 63 
73 6 10 4 18 39 
38 16 65 48 27 68 59 
72 49 40 17 70 
1 20 58 
